
Gurobi 6.5.2 (win64) logging started 07/24/16 17:40:28


Gurobi 6.5.2 (win64) logging started 07/24/16 17:40:28

Optimize a model with 4529 rows, 822 columns and 11048 nonzeros
Coefficient statistics:
  Matrix range    [6e-08, 1e+03]
  Objective range [1e+00, 1e+00]
  Bounds range    [1e+00, 1e+00]
  RHS range       [6e-06, 3e+03]
Presolve removed 4275 rows and 564 columns
Presolve time: 0.00s
Presolved: 254 rows, 258 columns, 1075 nonzeros
Variable types: 258 continuous, 0 integer (0 binary)

Root relaxation: objective 2.179315e+01, 274 iterations, 0.00 seconds

    Nodes    |    Current Node    |     Objective Bounds      |     Work
 Expl Unexpl |  Obj  Depth IntInf | Incumbent    BestBd   Gap | It/Node Time

*    0     0               0      21.7931507   21.79315  0.00%     -    0s

Explored 0 nodes (274 simplex iterations) in 0.02 seconds
Thread count was 8 (of 8 available processors)

Optimal solution found (tolerance 1.00e-04)
Best objective 2.179315070663e+01, best bound 2.179315070663e+01, gap 0.0%

Wrote requested result file 'H1\instance23\\Results23EC_Sol2.lp'

